p cnf 7230 17
6891 -6930 0
-6935 -6936 0
-4924 -6889 -6933 0
4924 -6934 0
6891 -6932 0
-4922 -6930 -6931 0
6933 6934 0
6929 6930 0
-6891 -6929 0
6889 -6934 0
6931 6932 0
4922 -6932 0
-4316 -6899 6936 0
6927 6928 0
-6927 -6928 0
6899 -6936 0
4316 -6936 0
